1637.0 22701.0 
1772.0 21589.0 
1786.0 21492.0 
1685.0 21693.0 
1689.0 21676.0 
1648.0 22147.0 
1685.0 21693.0 
1656.0 21862.0 
1694.0 21591.0 
1689.0 21676.0 
1672.0 21774.0 
1786.0 21492.0 
1774.0 21550.0 
1661.0 21821.0 
1634.0 23044.0 
1656.0 21862.0 
1778.0 21540.0 
1636.0 22954.0 
1645.0 22530.0 
